WARNING: for repeatability, setting FPU to use double precision
============================[ Problem Statistics ]=============================
|                                                                             |
|  Number of variables:        618847                                         |
|  Number of clauses:         2696329                                         |
|  Parse time:                   0.60 s                                       |
|                                                                             |
c ============================[ Search Statistics ]==============================
c | Conflicts |          ORIGINAL         |          LEARNT          | Progress |
c |           |    Vars  Clauses Literals |    Limit  Clauses Lit/Cl |          |
c ===============================================================================
c Switched to VSIDS.
c Switched to LRB.
c Switched to VSIDS.
c Switched to LRB.
c Switched to VSIDS.
c Switched to LRB.
c Switched to VSIDS.
c Switched to LRB.
c Switched to VSIDS.
c Switched to LRB.
c Switched to VSIDS.
c Switched to LRB.
c Switched to VSIDS.
c Switched to LRB.
c Switched to VSIDS.
c Switched to LRB.
c Switched to VSIDS.
c Switched to LRB.
c ===============================================================================
restarts                  : 1010
conflicts                 : 440187         (665 /sec)
decisions                 : 1590970        (0.00 % random) (2402 /sec)
propagations              : 2284350952     (3449237 /sec)
conflict literals         : 29106413       (46.75 % deleted)

conflicts w/ DIP found    : 339069         (77.03 % of conflicts)
conflicts w/ dangerous DIP: 0              (0.00 % of conflicts)
conflicts w/ DIP-learning : 762            (0.17 % of conflicts)
decisions on ext vars     : 1003           (0.06 % of decisions)
total ext vars            : 92          
tried delete ext vars     : 78          
deleted ext vars          : 78          
max ext vars              : 46          

Memory used               : 496.00 MB
CPU time                  : 662.277 s
DIP computation time      : 25.1917 s (3.80 % of total time)
ER_sel time               : 0.488192 s
ER_add time               : 0.00119 s
ER_delC time              : 0 s
ER_delV time              : 0.002833 s
ER_sub time               : 0.944956 s
ER_stat time              : 0 s

UNSATISFIABLE
